\* Source Pyomo model name=unknown *\

min 
x25:
+ [
+7 x1 * x13
+18 x10 * x22
+18 x11 * x23
+18 x12 * x24
+7 x14 * x2
+7 x15 * x3
+10 x16 * x4
+10 x17 * x5
+10 x18 * x6
+15 x19 * x7
+15 x20 * x8
+15 x21 * x9
] / 2

s.t.

c_l_x26_:
+ [
+1 x1 * x13
+1 x10 * x22
+1 x11 * x23
+1 x12 * x24
+1 x14 * x2
+1 x15 * x3
+1 x16 * x4
+1 x17 * x5
+1 x18 * x6
+1 x19 * x7
+1 x20 * x8
+1 x21 * x9
]
>= 10

c_l_x27_:
+ [
+1 x1 * x13
+1 x10 * x22
+1 x16 * x4
+1 x19 * x7
]
>= 1

c_l_x28_:
+ [
+1 x11 * x23
+1 x14 * x2
+1 x17 * x5
+1 x20 * x8
]
>= 1

c_l_x29_:
+ [
+1 x12 * x24
+1 x15 * x3
+1 x18 * x6
+1 x21 * x9
]
>= 1

c_u_x30_:
+ [
+1 x1 * x13
+1 x10 * x22
+1 x16 * x4
+1 x19 * x7
]
<= 6

c_u_x31_:
+ [
+1 x11 * x23
+1 x14 * x2
+1 x17 * x5
+1 x20 * x8
]
<= 6

c_u_x32_:
+ [
+1 x12 * x24
+1 x15 * x3
+1 x18 * x6
+1 x21 * x9
]
<= 6

c_u_x33_:
+ [
+0.5 x1 * x13
-0.5 x10 * x13
-0.5 x13 * x4
-0.5 x13 * x7
]
<= 0

c_u_x34_:
+ [
-1 x11 * x14
+0 x14 * x2
-1 x14 * x5
-1 x14 * x8
]
<= 0

c_u_x35_:
+ [
-1 x12 * x15
+0 x15 * x3
-1 x15 * x6
-1 x15 * x9
]
<= 0

c_u_x36_:
+ [
-1 x1 * x16
-1 x10 * x16
+0 x16 * x4
-1 x16 * x7
]
<= 0

c_u_x37_:
+ [
-1 x11 * x17
-1 x17 * x2
+0 x17 * x5
-1 x17 * x8
]
<= 0

c_u_x38_:
+ [
-0.80000000000000004 x12 * x18
-0.80000000000000004 x18 * x3
+0.19999999999999996 x18 * x6
-0.80000000000000004 x18 * x9
]
<= 0

c_u_x39_:
+ [
-1 x1 * x19
-1 x10 * x19
-1 x19 * x4
+0 x19 * x7
]
<= 0

c_u_x40_:
+ [
-1 x11 * x20
-1 x2 * x20
-1 x20 * x5
+0 x20 * x8
]
<= 0

c_u_x41_:
+ [
-0.20000000000000001 x12 * x21
-0.20000000000000001 x21 * x3
-0.20000000000000001 x21 * x6
+0.80000000000000004 x21 * x9
]
<= 0

c_u_x42_:
+ [
-1 x1 * x22
+0 x10 * x22
-1 x22 * x4
-1 x22 * x7
]
<= 0

c_u_x43_:
+ [
+0 x11 * x23
-1 x2 * x23
-1 x23 * x5
-1 x23 * x8
]
<= 0

c_u_x44_:
+ [
+0.5 x12 * x24
-0.5 x24 * x3
-0.5 x24 * x6
-0.5 x24 * x9
]
<= 0

c_l_x45_:
+ [
+1 x1 * x13
]
>= 0

c_l_x46_:
+ [
+1 x14 * x2
]
>= 0

c_u_x47_:
+ [
+0.10000000000000001 x12 * x15
-0.90000000000000002 x15 * x3
+0.10000000000000001 x15 * x6
+0.10000000000000001 x15 * x9
]
<= 0

c_u_x48_:
+ [
+0.14999999999999999 x1 * x16
+0.14999999999999999 x10 * x16
-0.84999999999999998 x16 * x4
+0.14999999999999999 x16 * x7
]
<= 0

c_u_x49_:
+ [
+0.29999999999999999 x11 * x17
+0.29999999999999999 x17 * x2
-0.69999999999999996 x17 * x5
+0.29999999999999999 x17 * x8
]
<= 0

c_l_x50_:
+ [
+1 x18 * x6
]
>= 0

c_u_x51_:
+ [
+0.10000000000000001 x1 * x19
+0.10000000000000001 x10 * x19
+0.10000000000000001 x19 * x4
-0.90000000000000002 x19 * x7
]
<= 0

c_u_x52_:
+ [
+0.20000000000000001 x11 * x20
+0.20000000000000001 x2 * x20
+0.20000000000000001 x20 * x5
-0.80000000000000004 x20 * x8
]
<= 0

c_l_x53_:
+ [
+1 x21 * x9
]
>= 0

c_l_x54_:
+ [
+1 x10 * x22
]
>= 0

c_u_x55_:
+ [
-0.69999999999999996 x11 * x23
+0.29999999999999999 x2 * x23
+0.29999999999999999 x23 * x5
+0.29999999999999999 x23 * x8
]
<= 0

c_l_x56_:
+ [
+1 x12 * x24
]
>= 0

c_u_x57_:
+ [
+5 x1 * x13
-3 x1 * x19
-3 x10 * x19
+1 x10 * x22
+4 x16 * x4
-3 x19 * x4
+0 x19 * x7
]
<= 0

c_u_x58_:
+ [
-3 x11 * x20
+1 x11 * x23
+5 x14 * x2
+4 x17 * x5
-3 x2 * x20
-3 x20 * x5
+0 x20 * x8
]
<= 0

c_u_x59_:
+ [
-3 x12 * x21
+1 x12 * x24
+5 x15 * x3
+4 x18 * x6
-3 x21 * x3
-3 x21 * x6
+0 x21 * x9
]
<= 0

c_u_x60_:
+1 x13
+1 x14
+1 x15
<= 2

c_u_x61_:
+1 x16
+1 x17
+1 x18
<= 2

c_u_x62_:
+1 x19
+1 x20
+1 x21
<= 2

c_u_x63_:
+1 x22
+1 x23
+1 x24
<= 2

c_e_ONE_VAR_CONSTANT: 
ONE_VAR_CONSTANT = 1.0

bounds
    -inf <= x1 <= +inf
    -inf <= x2 <= +inf
    -inf <= x3 <= +inf
    -inf <= x4 <= +inf
    -inf <= x5 <= +inf
    -inf <= x6 <= +inf
    -inf <= x7 <= +inf
    -inf <= x8 <= +inf
    -inf <= x9 <= +inf
    -inf <= x10 <= +inf
    -inf <= x11 <= +inf
    -inf <= x12 <= +inf
   0 <= x13 <= 1
   0 <= x14 <= 1
   0 <= x15 <= 1
   0 <= x16 <= 1
   0 <= x17 <= 1
   0 <= x18 <= 1
   0 <= x19 <= 1
   0 <= x20 <= 1
   0 <= x21 <= 1
   0 <= x22 <= 1
   0 <= x23 <= 1
   0 <= x24 <= 1
binary
  x13
  x14
  x15
  x16
  x17
  x18
  x19
  x20
  x21
  x22
  x23
  x24
end
